experiment/data/lkh-res/Vrp-Set-Golden-n481/Vrp-Set-Golden-n481-lkh/0.lkh1.tour
NAME : 0.169796.tour
COMMENT : Length = 169796
COMMENT : Found by LKH-3 [Keld Helsgaun] Tue Apr  9 02:21:16 2024
TYPE : TOUR
DIMENSION : 516
TOUR_SECTION
1
68
106
152
206
268
338
337
415
416
417
418
340
339
269
207
153
69
510
118
166
222
286
358
357
356
355
283
219
220
165
117
77
45
513
55
89
131
181
129
87
53
54
28
495
88
130
180
238
304
303
377
378
460
459
458
457
456
374
300
234
235
236
506
194
397
322
323
324
325
326
327
404
403
402
401
400
399
398
481
480
396
320
252
192
500
14
15
35
63
62
34
33
497
95
139
138
190
250
318
394
393
317
249
189
137
93
92
507
32
60
59
58
57
12
492
96
140
191
251
319
395
479
478
477
476
475
391
392
316
248
188
94
514
132
182
240
241
307
381
382
309
243
244
186
185
135
31
515
247
315
314
390
474
473
389
388
472
471
470
469
387
313
312
246
245
187
136
498
40
39
38
37
36
16
17
504
30
56
91
134
184
183
133
90
29
496
121
169
225
289
361
288
360
440
441
442
443
444
363
362
290
226
170
81
485
221
285
284
282
354
353
352
432
433
434
435
436
437
438
439
359
287
223
224
120
511
122
228
292
293
294
366
367
295
296
297
372
454
455
373
375
376
302
237
179
502
151
204
203
202
264
263
262
330
406
405
329
328
260
261
201
200
148
149
508
105
150
265
335
334
333
332
331
407
408
409
410
411
412
413
414
336
266
267
205
494
218
281
280
279
349
350
351
431
430
429
428
427
426
348
278
216
217
162
75
509
112
113
159
160
161
215
277
347
425
424
346
276
275
274
273
211
156
491
6
42
110
109
108
70
71
41
505
20
43
73
74
44
21
22
501
25
50
82
83
51
26
27
503
76
116
164
163
115
114
214
213
212
158
157
111
72
499
123
124
172
229
173
174
230
231
232
233
175
125
126
84
490
3
64
99
143
142
98
2
486
239
305
306
380
379
461
462
463
464
465
466
467
468
386
385
311
310
384
383
308
242
488
13
97
11
10
516
61
141
193
253
321
254
255
195
196
256
257
197
145
144
100
487
4
18
19
5
484
8
49
48
47
46
23
493
24
80
168
167
119
79
78
7
482
65
101
102
146
198
258
259
199
147
103
104
66
67
512
155
209
210
272
342
343
344
345
423
422
421
420
419
341
271
270
208
154
107
483
301
299
298
371
453
452
370
368
369
451
450
449
448
447
446
445
365
364
291
227
171
489
9
52
85
127
176
177
178
128
86
-1
EOF
